c FILE: i160-234

c SOURCE: From steinlib

c DESCRIPTION: Steinlib instance with 160 nodes and 320 edges.

p edge 160 320
e 1 13
e 1 33
e 1 89
e 1 96
e 2 34
e 2 44
e 2 112
e 2 146
e 2 159
e 3 9
e 3 28
e 3 33
e 3 93
e 3 122
e 4 34
e 4 101
e 4 126
e 4 133
e 5 49
e 5 82
e 6 40
e 6 76
e 6 98
e 7 34
e 7 35
e 7 75
e 8 21
e 8 33
e 8 59
e 8 68
e 8 78
e 8 95
e 8 99
e 10 25
e 10 60
e 10 66
e 11 74
e 12 26
e 12 35
e 12 63
e 12 80
e 12 96
e 12 105
e 12 110
e 13 39
e 13 58
e 13 104
e 13 116
e 14 25
e 14 36
e 14 54
e 14 125
e 15 65
e 15 85
e 15 122
e 15 150
e 16 24
e 16 90
e 16 150
e 16 156
e 17 33
e 17 76
e 17 136
e 18 32
e 18 46
e 18 50
e 18 110
e 18 141
e 18 149
e 19 94
e 19 103
e 19 126
e 20 128
e 22 30
e 22 143
e 22 148
e 22 158
e 23 48
e 23 97
e 23 120
e 23 127
e 24 62
e 24 124
e 25 60
e 25 71
e 25 77
e 25 110
e 25 111
e 26 86
e 26 96
e 26 133
e 26 143
e 27 128
e 28 37
e 28 48
e 28 64
e 28 93
e 28 111
e 29 55
e 29 68
e 29 107
e 29 153
e 30 55
e 30 71
e 30 91
e 31 39
e 31 41
e 31 86
e 31 106
e 31 116
e 32 42
e 32 62
e 32 137
e 33 51
e 33 63
e 33 74
e 33 91
e 33 110
e 33 118
e 33 126
e 33 130
e 33 150
e 34 42
e 34 160
e 35 51
e 35 53
e 35 94
e 35 124
e 36 108
e 36 121
e 36 128
e 36 150
e 37 149
e 38 89
e 39 80
e 40 96
e 40 100
e 40 140
e 40 151
e 41 43
e 41 49
e 41 84
e 41 102
e 42 140
e 43 47
e 43 131
e 44 92
e 44 146
e 45 66
e 45 115
e 46 83
e 46 106
e 46 129
e 47 54
e 47 66
e 47 155
e 48 74
e 48 76
e 48 94
e 49 81
e 49 92
e 50 156
e 51 75
e 51 80
e 51 82
e 51 88
e 51 102
e 51 107
e 51 114
e 51 117
e 52 59
e 52 60
e 52 91
e 52 94
e 52 130
e 53 65
e 53 81
e 54 58
e 54 89
e 54 95
e 55 81
e 55 116
e 55 137
e 56 102
e 56 109
e 56 132
e 57 84
e 57 136
e 58 118
e 59 79
e 60 62
e 60 106
e 61 87
e 61 95
e 61 112
e 61 129
e 61 140
e 62 73
e 62 78
e 63 80
e 63 84
e 64 71
e 64 106
e 64 141
e 64 147
e 64 149
e 65 81
e 65 150
e 66 83
e 67 139
e 67 159
e 68 80
e 68 97
e 69 70
e 70 104
e 70 150
e 71 129
e 72 130
e 73 83
e 73 91
e 73 110
e 74 79
e 74 84
e 74 156
e 75 133
e 75 151
e 76 89
e 76 124
e 76 135
e 77 128
e 79 106
e 79 115
e 79 144
e 79 149
e 79 153
e 79 160
e 80 93
e 80 116
e 81 155
e 82 84
e 82 130
e 82 157
e 83 103
e 83 123
e 83 149
e 83 151
e 83 159
e 84 94
e 84 103
e 84 107
e 85 100
e 85 115
e 85 121
e 86 154
e 87 122
e 87 152
e 88 95
e 88 100
e 88 120
e 88 159
e 89 99
e 89 105
e 89 156
e 90 121
e 90 156
e 94 95
e 94 152
e 95 142
e 95 146
e 98 126
e 98 135
e 99 113
e 100 130
e 100 132
e 101 123
e 101 156
e 101 159
e 102 109
e 102 111
e 102 142
e 103 119
e 104 125
e 106 134
e 106 135
e 108 155
e 109 145
e 109 160
e 110 127
e 111 113
e 113 138
e 114 150
e 115 139
e 115 145
e 115 146
e 115 158
e 115 160
e 118 136
e 118 158
e 119 124
e 119 126
e 120 143
e 121 156
e 122 123
e 122 139
e 123 132
e 123 148
e 124 131
e 124 137
e 125 131
e 125 147
e 127 132
e 130 148
e 130 150
e 133 153
e 136 156
e 137 146
e 146 157
e 148 151
e 148 159
e 150 153
